problems/csplib-prob001/CarSequencing-models/compact/O2/lingeling/model-random09-solution000001.eprime-solution
language ESSENCE' 1.0

letting car_Function1D be
        [1, 16, 9, 11, 12, 12, 1, 12, 15, 12, 11, 12, 15, 14, 12, 4, 12, 15, 12, 12, 1, 12, 15, 16, 9, 16, 1, 9, 12, 16,
         9, 3, 1, 12, 15, 16, 15, 1, 12, 15, 12, 12, 1, 8, 16, 12, 15, 1, 12, 15, 12, 15, 14, 12, 15, 12, 3, 1, 12, 16,
         9, 6, 1, 15, 11, 12, 12, 7, 16, 12, 12, 15, 1, 15, 12, 12, 16, 5, 12, 12, 18, 12, 1, 12, 16, 15, 10, 12, 1, 12,
         12, 15, 3, 1, 12, 8, 16, 15, 1, 10, 15, 12, 8, 1, 12, 12, 11, 12, 12, 11, 1, 13, 12, 18, 9, 12, 1, 13, 18, 12,
         3, 15, 1, 15, 12, 15, 12, 1, 4, 12, 12, 15, 7, 12, 15, 12, 12, 15, 1, 12, 11, 12, 12, 1, 12, 4, 12, 9, 1, 15,
         12, 10, 15, 12, 1, 16, 11, 15, 12, 12, 1, 12, 12, 15, 12, 12, 16, 1, 12, 4, 12, 16, 17, 14, 15, 12, 12, 16, 1,
         12, 12, 11, 15, 12, 2, 15, 16, 15, 3, 1, 12, 18, 3, 3, 1, 12, 12, 16, 15, 1; int(1..200)]
