problems/csplib-prob001/CarSequencing-models/noch/O2/lingeling/model-random09-solution000001.solution
language Essence 1.3

letting car be
        function(1 --> 1, 2 --> 16, 3 --> 9, 4 --> 11, 5 --> 12, 6 --> 12, 7 --> 1, 8 --> 12, 9 --> 15, 10 --> 12,
                 11 --> 11, 12 --> 12, 13 --> 15, 14 --> 14, 15 --> 12, 16 --> 4, 17 --> 12, 18 --> 15, 19 --> 12,
                 20 --> 12, 21 --> 1, 22 --> 12, 23 --> 15, 24 --> 16, 25 --> 9, 26 --> 16, 27 --> 1, 28 --> 9,
                 29 --> 12, 30 --> 16, 31 --> 9, 32 --> 3, 33 --> 1, 34 --> 12, 35 --> 15, 36 --> 16, 37 --> 15,
                 38 --> 1, 39 --> 12, 40 --> 15, 41 --> 12, 42 --> 12, 43 --> 1, 44 --> 8, 45 --> 16, 46 --> 12,
                 47 --> 15, 48 --> 1, 49 --> 12, 50 --> 15, 51 --> 12, 52 --> 15, 53 --> 14, 54 --> 12, 55 --> 15,
                 56 --> 12, 57 --> 3, 58 --> 1, 59 --> 12, 60 --> 16, 61 --> 9, 62 --> 6, 63 --> 1, 64 --> 15,
                 65 --> 11, 66 --> 12, 67 --> 12, 68 --> 7, 69 --> 16, 70 --> 12, 71 --> 12, 72 --> 15, 73 --> 1,
                 74 --> 15, 75 --> 12, 76 --> 12, 77 --> 16, 78 --> 5, 79 --> 12, 80 --> 12, 81 --> 18, 82 --> 12,
                 83 --> 1, 84 --> 12, 85 --> 16, 86 --> 15, 87 --> 10, 88 --> 12, 89 --> 1, 90 --> 12, 91 --> 12,
                 92 --> 15, 93 --> 3, 94 --> 1, 95 --> 12, 96 --> 8, 97 --> 16, 98 --> 15, 99 --> 1, 100 --> 10,
                 101 --> 15, 102 --> 12, 103 --> 8, 104 --> 1, 105 --> 12, 106 --> 12, 107 --> 11, 108 --> 12,
                 109 --> 12, 110 --> 11, 111 --> 1, 112 --> 13, 113 --> 12, 114 --> 18, 115 --> 9, 116 --> 12,
                 117 --> 1, 118 --> 13, 119 --> 18, 120 --> 12, 121 --> 3, 122 --> 15, 123 --> 1, 124 --> 15,
                 125 --> 12, 126 --> 15, 127 --> 12, 128 --> 1, 129 --> 4, 130 --> 12, 131 --> 12, 132 --> 15,
                 133 --> 7, 134 --> 12, 135 --> 15, 136 --> 12, 137 --> 12, 138 --> 15, 139 --> 1, 140 --> 12,
                 141 --> 11, 142 --> 12, 143 --> 12, 144 --> 1, 145 --> 12, 146 --> 4, 147 --> 12, 148 --> 9, 149 --> 1,
                 150 --> 15, 151 --> 12, 152 --> 10, 153 --> 15, 154 --> 12, 155 --> 1, 156 --> 16, 157 --> 11,
                 158 --> 15, 159 --> 12, 160 --> 12, 161 --> 1, 162 --> 12, 163 --> 12, 164 --> 15, 165 --> 12,
                 166 --> 12, 167 --> 16, 168 --> 1, 169 --> 12, 170 --> 4, 171 --> 12, 172 --> 16, 173 --> 17,
                 174 --> 14, 175 --> 15, 176 --> 12, 177 --> 12, 178 --> 16, 179 --> 1, 180 --> 12, 181 --> 12,
                 182 --> 11, 183 --> 15, 184 --> 12, 185 --> 2, 186 --> 15, 187 --> 16, 188 --> 15, 189 --> 3,
                 190 --> 1, 191 --> 12, 192 --> 18, 193 --> 3, 194 --> 3, 195 --> 1, 196 --> 12, 197 --> 12, 198 --> 16,
                 199 --> 15, 200 --> 1)
